T = 20;
M = 10;
R = 3;

min_makespan = 8;
max_makespan = 2048;

test_duration = [
    424,015,266,778,435,427,173,422,255,672,
    328,263,655,742,364,272,472,555,019,364
];

test_machines = [
    {},{},{},
    {},{},{},
    {},{},{},
    {},{},{},
    {7,4},{},{8,3},
    {4},{},{},
    {},{}
];

test_resources = [
    {},{},{},
    {},{},{1,2,3},
    {},{2,3},{},
    {},{},{},
    {},{},{},
    {},{3},{1,2,3},
    {},{}
];